(set-logic QF_SLIA)
(declare-fun var0 () String)
(assert (not (str.in_re var0 (re.++ ((_ re.loop 2 254) (re.++ (re.union (str.to_re "L") (re.union (str.to_re "}}") (re.union (str.to_re "&") (str.to_re "]N")))) (re.++ (re.union (str.to_re "e8") (re.union (str.to_re "b\u0022z") (re.union (str.to_re "L") (str.to_re "Gh")))) (re.++ (re.union (str.to_re "b") (re.union (str.to_re ":8") (re.union (str.to_re "Q") (str.to_re "ud")))) (re.union (str.to_re "-") (re.union (str.to_re "4M<") (re.union (str.to_re "ry") (str.to_re "j*g")))))))) (re.++ ((_ re.loop 3 925) (re.++ (re.union (str.to_re "#%)") (re.union (str.to_re "0\\") (re.union (str.to_re "j") (str.to_re "J")))) (re.++ (re.union (str.to_re "s") (re.union (str.to_re "k'/") (re.union (str.to_re "'") (str.to_re ">A1")))) (re.++ (re.union (str.to_re "D:|") (re.union (str.to_re "\\z") (re.union (str.to_re "A") (str.to_re "wf=")))) (re.union (str.to_re "1j") (re.union (str.to_re "s2A") (re.union (str.to_re "J'") (str.to_re "-1")))))))) (re.++ ((_ re.loop 3 315) (re.++ (re.union (str.to_re "qWd") (re.union (str.to_re "C}") (re.union (str.to_re ",)A") (str.to_re "X")))) (re.++ (re.union (str.to_re "Rf") (re.union (str.to_re "t") (re.union (str.to_re "@~)") (str.to_re "o")))) (re.++ (re.union (str.to_re "OyU") (re.union (str.to_re "y") (re.union (str.to_re "h") (str.to_re "iFC")))) (re.union (str.to_re "Q)T") (re.union (str.to_re "K") (re.union (str.to_re ";z") (str.to_re "Dk")))))))) ((_ re.loop 5 157) (re.++ (re.union (str.to_re "<~~") (re.union (str.to_re "*") (re.union (str.to_re "L") (str.to_re "C'<")))) (re.++ (re.union (str.to_re "u!") (re.union (str.to_re "s") (re.union (str.to_re "9n?") (str.to_re "h:")))) (re.++ (re.union (str.to_re "g[") (re.union (str.to_re "RC") (re.union (str.to_re "D") (str.to_re "_")))) (re.union (str.to_re "hcy") (re.union (str.to_re "waR") (re.union (str.to_re "W0]") (str.to_re "="))))))))))))))
(assert (not (str.in_re var0 (re.++ ((_ re.loop 9 700) (re.++ (re.union (str.to_re "BF") (re.union (str.to_re "!|") (re.union (str.to_re "oUZ") (str.to_re "HV<")))) (re.++ (re.union (str.to_re "9P") (re.union (str.to_re "DrH") (re.union (str.to_re "$/R") (str.to_re "#U")))) (re.++ (re.union (str.to_re "i") (re.union (str.to_re "1]E") (re.union (str.to_re ":") (str.to_re "EZL")))) (re.union (str.to_re "Pv9") (re.union (str.to_re "I#}") (re.union (str.to_re "Irc") (str.to_re "q+{")))))))) (re.++ ((_ re.loop 11 286) (re.++ (re.union (str.to_re "!") (re.union (str.to_re "C") (re.union (str.to_re "r") (str.to_re "p*")))) (re.++ (re.union (str.to_re "e@3") (re.union (str.to_re "KA5") (re.union (str.to_re "Fk") (str.to_re "=i")))) (re.++ (re.union (str.to_re "2") (re.union (str.to_re "P") (re.union (str.to_re "E") (str.to_re "?F")))) (re.union (str.to_re "=>") (re.union (str.to_re "I[") (re.union (str.to_re "1") (str.to_re "U")))))))) (re.++ ((_ re.loop 7 682) (re.++ (re.union (str.to_re "xq%") (re.union (str.to_re "3") (re.union (str.to_re "d1") (str.to_re "P@")))) (re.++ (re.union (str.to_re "+") (re.union (str.to_re "ex") (re.union (str.to_re "Z8") (str.to_re "*")))) (re.++ (re.union (str.to_re "OXX") (re.union (str.to_re "O4b") (re.union (str.to_re "8o_") (str.to_re "\\")))) (re.union (str.to_re "?w^") (re.union (str.to_re "]I6") (re.union (str.to_re ">e2") (str.to_re "2@")))))))) ((_ re.loop 19 596) (re.++ (re.union (str.to_re "=") (re.union (str.to_re "iz.") (re.union (str.to_re "L") (str.to_re "!Q")))) (re.++ (re.union (str.to_re "01L") (re.union (str.to_re "VE") (re.union (str.to_re "8]") (str.to_re "TP")))) (re.++ (re.union (str.to_re "$'") (re.union (str.to_re "$*<") (re.union (str.to_re ",*") (str.to_re "&y5")))) (re.union (str.to_re "cs") (re.union (str.to_re "oi") (re.union (str.to_re "D") (str.to_re "I:o"))))))))))))))
(assert (not (str.in_re var0 (re.++ (re.* re.allchar) (re.++ (re.union (str.to_re "<") (re.union (str.to_re ">") (re.union (str.to_re "'") (re.union (str.to_re "\u0022") (str.to_re "&"))))) (re.* re.allchar))))))
(assert (<= 50 (str.len var0)))
(check-sat)
(get-model)
